137
100
6
30
10
73
64
14
67
29
18
50
31
74
27
1
46
56
12
33
60
47
18
62
8
75
68
36
64
3
9
34
10
9
42
33
6
69
51
58
16
75
14
61
54
45
49
43
1
10
11
63
4
16
16
32
14
40
41
25
74
27
20
51
14
71
7
21
18
2
1
12
13
44
36
69
39
57
44
37
30
7
38
13
1
8
16
43
31
65
8
62
67
3
48
32
54
22
25
3
31
13
5
38
31
24
25
61
36
67
29
17
16
4
15
25
61
33
33
71
29
33
23
21
14
27
41
10
31
11
60
33
15
54
51
74
43
7
22
